NAME : sim51.79711.tour
COMMENT : Length = 79711
COMMENT : Found by LKH [Keld Helsgaun] Wed Aug 29 08:41:06 2018
TYPE : TOUR
DIMENSION : 51
TOUR_SECTION
1
3
29
49
40
15
14
28
37
26
24
12
45
46
6
19
8
48
47
43
10
7
39
9
32
17
21
22
27
30
42
4
44
38
16
18
13
33
20
34
35
23
50
51
5
25
36
2
41
11
31
-1
EOF
